10 10 3

0 78 175 304 500 221 194 252 231 463 
154 0 445 366 493 368 371 63 385 410 
425 70 0 349 303 302 382 345 127 396 
279 415 313 0 146 443 195 400 198 366 
94 156 96 263 0 261 248 335 460 322 
412 473 207 321 153 0 434 376 406 442 
257 457 68 359 443 434 0 379 88 132 
73 438 281 389 238 387 192 0 207 354 
146 492 313 418 403 492 331 224 0 145 
265 306 257 206 63 421 432 128 363 0 

96.9 0 1
96.9 1 5
96.9 2 4
96.9 3 8
96.9 4 8
96.9 5 2
96.9 6 3
96.9 7 8
96.9 8 1
96.9 9 6

